<DOCUMENT>
<COLORDEN>-1</COLORDEN>
<TIPOORDEN>-1</TIPOORDEN>
<FILASPAGINA>0</FILASPAGINA>
<VISIBILIDAD>
	<VISIBLECOLUMNA name="idlpresupuestocontable" >0</VISIBLECOLUMNA>
	<VISIBLECOLUMNA name="idpresupuestocontable" >0</VISIBLECOLUMNA>
	<VISIBLECOLUMNA name="idpartida" >0</VISIBLECOLUMNA>
	<VISIBLECOLUMNA name="codigocompletopartida" >1</VISIBLECOLUMNA>
	<VISIBLECOLUMNA name="nombrepartida" >1</VISIBLECOLUMNA>
	<VISIBLECOLUMNA name="conceptolpresupuestocontable" >1</VISIBLECOLUMNA>
	<VISIBLECOLUMNA name="saldolpresupuestocontable" >1</VISIBLECOLUMNA>
</VISIBILIDAD>
<HORIZONTALHEADER>AAAA/wAAAAAAAAABAAAAAQAAAAcBAAAAAAAAAAAAAAAHBwAAAAMAAAACAAAAZAAAAAEAAABkAAAAAAAAAGQAAAGQAAAABwEBAQAAAAAAAAAAAAAAAABk/////wAAAIQAAAAAAAAABAAAAAAAAAABAAAAAAAAAAAAAAABAAAAAAAAAAAAAAABAAAAAAAAAZAAAAAEAAAAAA==</HORIZONTALHEADER>
<COLUMNASHORIZONTALHEADER>AAAA/wAAAAAAAAABAAAAAQAAAAQAAAAAAAAAAAAAAAAEDAAAAAIAAAADAAAAAAAAAAIAAAAAAAAA/AAAAAQAAQEAAAAAAAAAAAABAAAAZP////8AAACEAAAAAAAAAAMAAACYAAAAAQAAAAMAAABkAAAAAQAAAAAAAAAAAAAAAgAAAAA=</COLUMNASHORIZONTALHEADER>
<ORDENCOLUMNAS>
	<ORDENCOLUMNA name="idlpresupuestocontable" >0</ORDENCOLUMNA>
	<ORDENCOLUMNA name="idpresupuestocontable" >1</ORDENCOLUMNA>
	<ORDENCOLUMNA name="idpartida" >2</ORDENCOLUMNA>
	<ORDENCOLUMNA name="codigocompletopartida" >3</ORDENCOLUMNA>
	<ORDENCOLUMNA name="nombrepartida" >4</ORDENCOLUMNA>
	<ORDENCOLUMNA name="conceptolpresupuestocontable" >5</ORDENCOLUMNA>
	<ORDENCOLUMNA name="saldolpresupuestocontable" >6</ORDENCOLUMNA>
</ORDENCOLUMNAS>
<VISIBILIDADMENU>1</VISIBILIDADMENU>
</DOCUMENT>
